(declare-fun var0 () String)
(assert (str.in.re var0 (re.++ (re.union (re.* (str.to.re "00")) (re.* (str.to.re "1"))) (re.++ (re.+ (re.+ (str.to.re "2"))) (re.++ (re.* (re.* (str.to.re "333"))) (re.++ (re.* (re.+ (str.to.re "4"))) (re.++ (re.union (re.+ (str.to.re "555")) (re.+ (str.to.re "6"))) (re.++ (re.union (re.* (str.to.re "77")) (re.union (str.to.re "888") (str.to.re "999"))) (re.++ (re.union (re.* (str.to.re "aaa")) (re.+ (str.to.re "bbb"))) (re.++ (re.+ (re.+ (str.to.re "c"))) (re.++ (re.+ (re.union (str.to.re "d") (str.to.re "ee"))) (re.* (re.union (str.to.re "f") (str.to.re "gg"))))))))))))))
(assert (str.in.re var0 (re.++ (re.* (re.union (str.to.re "0") (str.to.re "1"))) (re.++ (re.* (re.+ (str.to.re "22"))) (re.++ (re.* (re.* (str.to.re "33"))) (re.++ (re.union (re.+ (str.to.re "444")) (re.* (str.to.re "555"))) (re.++ (re.+ (re.* (str.to.re "66"))) (re.++ (re.+ (re.+ (str.to.re "777"))) (re.++ (re.union (re.union (str.to.re "8") (str.to.re "99")) (re.* (str.to.re "a"))) (re.++ (re.+ (re.union (str.to.re "bbb") (str.to.re "ccc"))) (re.++ (re.+ (re.union (str.to.re "d") (str.to.re "eee"))) (re.+ (re.+ (str.to.re "ff"))))))))))))))
(assert (str.in.re var0 (re.++ (re.+ (re.* (str.to.re "000"))) (re.++ (re.union (re.union (str.to.re "1") (str.to.re "22")) (re.union (str.to.re "333") (str.to.re "444"))) (re.++ (re.union (re.union (str.to.re "5") (str.to.re "6")) (re.union (str.to.re "777") (str.to.re "8"))) (re.++ (re.union (re.* (str.to.re "99")) (re.union (str.to.re "aa") (str.to.re "b"))) (re.++ (re.union (re.+ (str.to.re "c")) (re.* (str.to.re "ddd"))) (re.++ (re.+ (re.+ (str.to.re "ee"))) (re.++ (re.+ (re.* (str.to.re "ff"))) (re.++ (re.union (re.* (str.to.re "gg")) (re.* (str.to.re "hh"))) (re.++ (re.union (re.union (str.to.re "iii") (str.to.re "jjj")) (re.* (str.to.re "kkk"))) (re.+ (re.+ (str.to.re "ll"))))))))))))))
(assert (str.in.re var0 (re.++ (re.* (re.+ (str.to.re "00"))) (re.++ (re.* (re.+ (str.to.re "111"))) (re.++ (re.* (re.union (str.to.re "222") (str.to.re "333"))) (re.++ (re.* (re.union (str.to.re "44") (str.to.re "55"))) (re.++ (re.union (re.+ (str.to.re "66")) (re.+ (str.to.re "7"))) (re.++ (re.* (re.* (str.to.re "88"))) (re.++ (re.* (re.* (str.to.re "9"))) (re.++ (re.+ (re.union (str.to.re "a") (str.to.re "bbb"))) (re.++ (re.union (re.union (str.to.re "ccc") (str.to.re "dd")) (re.union (str.to.re "e") (str.to.re "ff"))) (re.union (re.+ (str.to.re "gg")) (re.union (str.to.re "hhh") (str.to.re "i"))))))))))))))
(assert (str.in.re var0 (re.++ (re.+ (re.+ (str.to.re "000"))) (re.++ (re.* (re.* (str.to.re "11"))) (re.++ (re.+ (re.+ (str.to.re "222"))) (re.++ (re.* (re.* (str.to.re "33"))) (re.++ (re.+ (re.union (str.to.re "444") (str.to.re "555"))) (re.++ (re.* (re.union (str.to.re "6") (str.to.re "7"))) (re.++ (re.* (re.+ (str.to.re "88"))) (re.++ (re.* (re.union (str.to.re "999") (str.to.re "aa"))) (re.++ (re.+ (re.union (str.to.re "b") (str.to.re "cc"))) (re.+ (re.+ (str.to.re "dd"))))))))))))))
(assert (str.in.re var0 (re.++ (re.* (re.* (str.to.re "0"))) (re.++ (re.+ (re.union (str.to.re "11") (str.to.re "22"))) (re.++ (re.* (re.* (str.to.re "3"))) (re.++ (re.+ (re.* (str.to.re "444"))) (re.++ (re.union (re.* (str.to.re "55")) (re.+ (str.to.re "666"))) (re.++ (re.+ (re.* (str.to.re "7"))) (re.++ (re.union (re.union (str.to.re "888") (str.to.re "99")) (re.+ (str.to.re "a"))) (re.++ (re.+ (re.union (str.to.re "bbb") (str.to.re "cc"))) (re.++ (re.union (re.* (str.to.re "d")) (re.+ (str.to.re "ee"))) (re.* (re.* (str.to.re "ff"))))))))))))))
(assert (str.in.re var0 (re.++ (re.* (re.+ (str.to.re "0"))) (re.++ (re.union (re.* (str.to.re "11")) (re.union (str.to.re "222") (str.to.re "333"))) (re.++ (re.union (re.+ (str.to.re "4")) (re.+ (str.to.re "555"))) (re.++ (re.union (re.union (str.to.re "66") (str.to.re "77")) (re.+ (str.to.re "8"))) (re.++ (re.* (re.+ (str.to.re "999"))) (re.++ (re.+ (re.union (str.to.re "aa") (str.to.re "b"))) (re.++ (re.+ (re.union (str.to.re "ccc") (str.to.re "dd"))) (re.++ (re.union (re.+ (str.to.re "eee")) (re.union (str.to.re "fff") (str.to.re "gg"))) (re.++ (re.+ (re.+ (str.to.re "hhh"))) (re.union (re.union (str.to.re "i") (str.to.re "jj")) (re.+ (re.+ (re.* re.allchar)))))))))))))))
(check-sat)
